10184.9,59.72,74.08
9182.81,66.23,82.16
10541.08,57.7,71.58
9793.21,62.11,77.04
10382.46,58.58,72.67
12522.4,48.57,60.25
9943.59,61.17,75.88
10331.34,58.87,73.03
10166.59,59.82,74.21
9776.41,62.21,77.17
9292.56,65.45,81.19
11476.43,53.0,65.74
10049.03,60.52,75.08
9917.8,61.33,76.07
10337.31,58.84,72.99
9653.53,63.0,78.16
10616.28,57.29,71.07
9495.92,64.05,79.45
11204.25,54.28,67.34
9531.41,63.81,79.16
